lkh/tours/vii_region_maule.tour
vii_region_maule, Cost: 121_342
The tours traveled by the 3 salesmen are:
1 8 6 1 (#2)  Cost: 121
1 5 7 1 (#2)  Cost: 113
1 4 3 2 1 (#3)  Cost: 108
